unknown
(model
; cardinality of BoundSet is 3
(declare-sort BoundSet 0)
; rep: @uc_BoundSet_0
; rep: @uc_BoundSet_1
; rep: @uc_BoundSet_2
; cardinality of UnboundSet is 1
(declare-sort UnboundSet 0)
(declare-fun groundTerm_4 () UnboundSet)
(define-fun AreInRoom ((BOUND_VARIABLE_427 BoundSet) (BOUND_VARIABLE_428 BoundSet)) Bool true)
(define-fun IsInRoom ((BOUND_VARIABLE_427 BoundSet) (BOUND_VARIABLE_428 BoundSet)) Bool true)
(define-fun AreInOffice ((BOUND_VARIABLE_427 BoundSet) (BOUND_VARIABLE_428 BoundSet)) Bool false)
(define-fun AreWithComputers ((BOUND_VARIABLE_427 BoundSet) (BOUND_VARIABLE_428 BoundSet)) Bool false)
(define-fun AreWithProjectorScreen ((BOUND_VARIABLE_427 BoundSet) (BOUND_VARIABLE_428 BoundSet)) Bool false)
)
sat
(model
; cardinality of BoundSet is 1
(declare-sort BoundSet 0)
; rep: @uc_BoundSet_0
; cardinality of UnboundSet is 1
(declare-sort UnboundSet 0)
(declare-fun groundTerm_6 () UnboundSet)
(define-fun AreInRoom ((BOUND_VARIABLE_491 BoundSet) (BOUND_VARIABLE_492 BoundSet)) Bool true)
(define-fun IsInRoom ((BOUND_VARIABLE_491 BoundSet) (BOUND_VARIABLE_492 BoundSet)) Bool true)
(define-fun AreInOffice ((BOUND_VARIABLE_491 BoundSet) (BOUND_VARIABLE_492 BoundSet)) Bool false)
(define-fun AreWithComputers ((BOUND_VARIABLE_491 BoundSet) (BOUND_VARIABLE_492 BoundSet)) Bool true)
(define-fun AreWithProjectorScreen ((BOUND_VARIABLE_491 BoundSet) (BOUND_VARIABLE_492 BoundSet)) Bool true)
)
